letting n =  10
letting blocks =  [[1, 1], [1, 4], [1, 6], [1, 7], [1, 9], [1, 10], [2, 2], [2, 4], [2, 6], [2, 7], [2, 8], [2, 10], [3, 2], [3, 3], [3, 4], [3, 5], [3, 8], [4, 3], [4, 5], [4, 7], [4, 8], [4, 9], [5, 3], [5, 9], [5, 10], [6, 3], [6, 5], [6, 6], [6, 7], [6, 8], [7, 1], [7, 2], [7, 4], [7, 8], [7, 9], [7, 10], [8, 2], [8, 3], [8, 5], [8, 6], [8, 7], [8, 10], [9, 1], [9, 2], [9, 5], [9, 6], [9, 7], [9, 10], [10, 1], [10, 2], [10, 3], [10, 6], [10, 8], [10, 9]]
